Stadium construction/stadium2.lp
\ Model stadium2
\ LP format - for model browsing. Use MPS format to capture full model detail.
Maximize
  Z2
Subject To
 R0: S_1 - S_2 - X_1 <= -2
 R1: S_2 - S_3 - X_2 <= -16
 R2: S_2 - S_4 - X_2 <= -16
 R3: S_2 - S_14 - X_2 <= -16
 R4: S_3 - S_5 - X_3 <= -9
 R5: S_4 - S_6 - X_4 <= -8
 R6: S_4 - S_7 - X_4 <= -8
 R7: S_4 - S_9 - X_4 <= -8
 R8: S_4 - S_10 - X_4 <= -8
 R9: S_4 - S_15 - X_4 <= -8
 R10: S_5 - S_6 - X_5 <= -10
 R11: S_6 - S_8 - X_6 <= -6
 R12: S_6 - S_11 - X_6 <= -6
 R13: S_6 - S_9 - X_6 <= -6
 R14: S_7 - S_13 - X_7 <= -2
 R15: S_8 - S_16 - X_8 <= -2
 R16: S_9 - S_12 - X_9 <= -9
 R17: S_10 - S_End - X_10 <= -5
 R18: S_11 - S_16 - X_11 <= -3
 R19: S_12 - S_17 - X_12 <= -2
 R20: S_13 - S_End - X_13 <= -1
 R21: S_14 - S_15 - X_14 <= -7
 R22: S_15 - S_16 - X_15 <= -4
 R23: S_16 - S_End - X_16 <= -3
 R24: S_17 - S_18 - X_17 <= -9
 R25: S_18 - S_End - X_18 <= -1
 R26: X_1 <= 0
 R27: X_2 <= 3
 R28: X_3 <= 1
 R29: X_4 <= 2
 R30: X_5 <= 2
 R31: X_6 <= 1
 R32: X_7 <= 1
 R33: X_8 <= 0
 R34: X_9 <= 2
 R35: X_10 <= 1
 R36: X_11 <= 1
 R37: X_12 <= 0
 R38: X_13 <= 0
 R39: X_14 <= 2
 R40: X_15 <= 2
 R41: X_16 <= 1
 R42: X_17 <= 3
 R43: X_18 <= 0
 R44: S_End + X_End = 64
 R45: - Z2 - 30000 X_2 - 26000 X_3 - 12000 X_4 - 17000 X_5 - 15000 X_6
   - 8000 X_7 - 42000 X_9 - 21000 X_10 - 18000 X_11 - 22000 X_14
   - 12000 X_15 - 6000 X_16 - 16000 X_17 + 30000 X_End = 0
Bounds
Generals
 Z2 S_1 S_2 S_3 S_4 S_5 S_6 S_7 S_8 S_9 S_10 S_11 S_12 S_13 S_14 S_15 S_16
 S_17 S_18 S_End X_1 X_2 X_3 X_4 X_5 X_6 X_7 X_8 X_9 X_10 X_11 X_12 X_13
 X_14 X_15 X_16 X_17 X_18 X_End
End
