Stadium construction/stadium2.sol
# Solution for model stadium2
# Objective value = 87000
Z2 87000
S_1 0
S_2 2
S_3 15
S_4 15
S_5 23
S_6 31
S_7 26
S_8 47
S_9 36
S_10 49
S_11 46
S_12 45
S_13 28
S_14 15
S_15 45
S_16 49
S_17 47
S_18 53
S_End 54
X_1 0
X_2 3
X_3 1
X_4 0
X_5 2
X_6 1
X_7 0
X_8 0
X_9 0
X_10 0
X_11 0
X_12 0
X_13 0
X_14 0
X_15 0
X_16 0
X_17 3
X_18 0
X_End 10
